(set-info :smt-lib-version 2.6)
(set-logic QF_LRA)
(set-info :source |
TLP-GP automated DTP to SMT-LIB encoding for planning
by F.Maris and P.Regnier, IRIT - Universite Paul Sabatier, Toulouse

|)
(set-info :category "industrial")
(set-info :status sat)
(declare-fun St_spy_variable () Real)
(declare-fun t_Init_0 () Real)
(declare-fun t_Goal_6 () Real)
(declare-fun t_BAKE_CERAMIC1_p2_k2_2 () Real)
(declare-fun t_TREAT_CERAMIC1_p2_3 () Real)
(declare-fun t_BAKE_CERAMIC1_p2_k2_3 () Real)
(declare-fun t_BAKE_CERAMIC1_p1_k2_2 () Real)
(declare-fun t_TREAT_CERAMIC1_p1_3 () Real)
(declare-fun t_BAKE_CERAMIC1_p1_k2_3 () Real)
(declare-fun t_MAKE_STRUCTURE_p1_p2_4 () Real)
(declare-fun t_BAKE_STRUCTURE_p1_p2_k1_5 () Real)
(declare-fun t_BAKE_CERAMIC1_p4_k2_2 () Real)
(declare-fun t_TREAT_CERAMIC1_p4_3 () Real)
(declare-fun t_BAKE_CERAMIC1_p4_k2_3 () Real)
(declare-fun t_BAKE_CERAMIC1_p3_k2_2 () Real)
(declare-fun t_TREAT_CERAMIC1_p3_3 () Real)
(declare-fun t_FIRE_KILN2_k2_2 () Real)
(declare-fun t_BAKE_CERAMIC1_p3_k2_3 () Real)
(declare-fun t_MAKE_STRUCTURE_p3_p4_4 () Real)
(declare-fun t_BAKE_STRUCTURE_p3_p4_k1_5 () Real)
(declare-fun t_BAKE_CERAMIC2_p6_k2_2 () Real)
(declare-fun t_TREAT_CERAMIC2_p6_3 () Real)
(declare-fun t_BAKE_CERAMIC2_p6_k2_3 () Real)
(declare-fun t_BAKE_CERAMIC2_p5_k2_2 () Real)
(declare-fun t_TREAT_CERAMIC2_p5_3 () Real)
(declare-fun t_BAKE_CERAMIC2_p5_k2_3 () Real)
(declare-fun t_MAKE_STRUCTURE_p5_p6_4 () Real)
(declare-fun t_BAKE_STRUCTURE_p5_p6_k1_5 () Real)
(declare-fun t_BAKE_CERAMIC2_p8_k2_2 () Real)
(declare-fun t_TREAT_CERAMIC2_p8_3 () Real)
(declare-fun t_BAKE_CERAMIC2_p8_k2_3 () Real)
(declare-fun t_BAKE_CERAMIC2_p7_k2_2 () Real)
(declare-fun t_TREAT_CERAMIC2_p7_3 () Real)
(declare-fun t_BAKE_CERAMIC2_p7_k2_3 () Real)
(declare-fun t_MAKE_STRUCTURE_p7_p8_4 () Real)
(declare-fun t_BAKE_STRUCTURE_p7_p8_k1_5 () Real)
(declare-fun t_BAKE_CERAMIC2_p10_k2_2 () Real)
(declare-fun t_TREAT_CERAMIC2_p10_3 () Real)
(declare-fun t_BAKE_CERAMIC2_p10_k2_3 () Real)
(declare-fun t_BAKE_CERAMIC2_p9_k2_2 () Real)
(declare-fun t_TREAT_CERAMIC2_p9_3 () Real)
(declare-fun t_BAKE_CERAMIC2_p9_k2_3 () Real)
(declare-fun t_MAKE_STRUCTURE_p9_p10_4 () Real)
(declare-fun t_BAKE_STRUCTURE_p9_p10_k1_5 () Real)
(declare-fun t_BAKE_CERAMIC3_p12_k2_2 () Real)
(declare-fun t_TREAT_CERAMIC3_p12_3 () Real)
(declare-fun t_BAKE_CERAMIC3_p12_k1_3 () Real)
(declare-fun t_BAKE_CERAMIC3_p11_k2_2 () Real)
(declare-fun t_TREAT_CERAMIC3_p11_3 () Real)
(declare-fun t_BAKE_CERAMIC3_p11_k1_3 () Real)
(declare-fun t_MAKE_STRUCTURE_p11_p12_4 () Real)
(declare-fun t_BAKE_STRUCTURE_p11_p12_k1_5 () Real)
(declare-fun t_BAKE_CERAMIC3_p14_k2_2 () Real)
(declare-fun t_TREAT_CERAMIC3_p14_3 () Real)
(declare-fun t_BAKE_CERAMIC3_p14_k1_3 () Real)
(declare-fun t_BAKE_CERAMIC3_p13_k2_2 () Real)
(declare-fun t_TREAT_CERAMIC3_p13_3 () Real)
(declare-fun t_BAKE_CERAMIC3_p13_k1_3 () Real)
(declare-fun t_MAKE_STRUCTURE_p13_p14_4 () Real)
(declare-fun t_BAKE_STRUCTURE_p13_p14_k1_5 () Real)
(declare-fun t_BAKE_CERAMIC3_p16_k2_2 () Real)
(declare-fun t_TREAT_CERAMIC3_p16_3 () Real)
(declare-fun t_BAKE_CERAMIC3_p16_k1_3 () Real)
(declare-fun t_BAKE_CERAMIC3_p15_k2_2 () Real)
(declare-fun t_TREAT_CERAMIC3_p15_3 () Real)
(declare-fun t_BAKE_CERAMIC3_p15_k1_3 () Real)
(declare-fun t_MAKE_STRUCTURE_p15_p16_4 () Real)
(declare-fun t_BAKE_STRUCTURE_p15_p16_k1_5 () Real)
(declare-fun t_BAKE_CERAMIC3_p18_k2_2 () Real)
(declare-fun t_TREAT_CERAMIC3_p18_3 () Real)
(declare-fun t_BAKE_CERAMIC3_p18_k1_3 () Real)
(declare-fun t_BAKE_CERAMIC3_p17_k2_2 () Real)
(declare-fun t_TREAT_CERAMIC3_p17_3 () Real)
(declare-fun t_BAKE_CERAMIC3_p17_k1_3 () Real)
(declare-fun t_MAKE_STRUCTURE_p17_p18_4 () Real)
(declare-fun t_BAKE_STRUCTURE_p17_p18_k1_5 () Real)
(declare-fun t_BAKE_CERAMIC3_p20_k2_2 () Real)
(declare-fun t_TREAT_CERAMIC3_p20_3 () Real)
(declare-fun t_BAKE_CERAMIC3_p20_k1_3 () Real)
(declare-fun t_FIRE_KILN2_k2_1 () Real)
(declare-fun t_BAKE_CERAMIC3_p19_k2_2 () Real)
(declare-fun t_TREAT_CERAMIC3_p19_3 () Real)
(declare-fun t_FIRE_KILN1_k1_2 () Real)
(declare-fun t_BAKE_CERAMIC3_p19_k1_3 () Real)
(declare-fun t_MAKE_STRUCTURE_p19_p20_4 () Real)
(declare-fun t_FIRE_KILN1_k1_1 () Real)
(declare-fun t_BAKE_STRUCTURE_p19_p20_k1_5 () Real)
(assert (let ((?v_35 (- t_Goal_6 t_BAKE_STRUCTURE_p1_p2_k1_5)) (?v_52 (- t_Goal_6 t_BAKE_STRUCTURE_p3_p4_k1_5)) (?v_60 (- t_Goal_6 t_BAKE_STRUCTURE_p5_p6_k1_5)) (?v_68 (- t_Goal_6 t_BAKE_STRUCTURE_p7_p8_k1_5)) (?v_76 (- t_Goal_6 t_BAKE_STRUCTURE_p9_p10_k1_5)) (?v_93 (- t_Goal_6 t_BAKE_STRUCTURE_p11_p12_k1_5)) (?v_101 (- t_Goal_6 t_BAKE_STRUCTURE_p13_p14_k1_5)) (?v_109 (- t_Goal_6 t_BAKE_STRUCTURE_p15_p16_k1_5)) (?v_117 (- t_Goal_6 t_BAKE_STRUCTURE_p17_p18_k1_5)) (?v_125 (- t_Goal_6 t_BAKE_STRUCTURE_p19_p20_k1_5)) (?v_121 (- t_BAKE_CERAMIC3_p19_k2_2 t_FIRE_KILN2_k2_1))) (let ((?v_3 (<= ?v_121 15)) (?v_118 (- t_BAKE_CERAMIC3_p20_k2_2 t_FIRE_KILN2_k2_1))) (let ((?v_4 (<= ?v_118 15)) (?v_113 (- t_BAKE_CERAMIC3_p17_k2_2 t_FIRE_KILN2_k2_1))) (let ((?v_5 (<= ?v_113 15)) (?v_110 (- t_BAKE_CERAMIC3_p18_k2_2 t_FIRE_KILN2_k2_1))) (let ((?v_6 (<= ?v_110 15)) (?v_105 (- t_BAKE_CERAMIC3_p15_k2_2 t_FIRE_KILN2_k2_1))) (let ((?v_7 (<= ?v_105 15)) (?v_102 (- t_BAKE_CERAMIC3_p16_k2_2 t_FIRE_KILN2_k2_1))) (let ((?v_8 (<= ?v_102 15)) (?v_97 (- t_BAKE_CERAMIC3_p13_k2_2 t_FIRE_KILN2_k2_1))) (let ((?v_9 (<= ?v_97 15)) (?v_94 (- t_BAKE_CERAMIC3_p14_k2_2 t_FIRE_KILN2_k2_1))) (let ((?v_10 (<= ?v_94 15)) (?v_80 (- t_BAKE_CERAMIC3_p11_k2_2 t_FIRE_KILN2_k2_1))) (let ((?v_11 (<= ?v_80 15)) (?v_77 (- t_BAKE_CERAMIC3_p12_k2_2 t_FIRE_KILN2_k2_1))) (let ((?v_12 (<= ?v_77 15)) (?v_74 (- t_BAKE_CERAMIC2_p9_k2_3 t_FIRE_KILN2_k2_1))) (let ((?v_13 (<= ?v_74 10)) (?v_72 (- t_BAKE_CERAMIC2_p9_k2_2 t_FIRE_KILN2_k2_1))) (let ((?v_14 (<= ?v_72 10)) (?v_71 (- t_BAKE_CERAMIC2_p10_k2_3 t_FIRE_KILN2_k2_1))) (let ((?v_15 (<= ?v_71 10)) (?v_69 (- t_BAKE_CERAMIC2_p10_k2_2 t_FIRE_KILN2_k2_1))) (let ((?v_16 (<= ?v_69 10)) (?v_66 (- t_BAKE_CERAMIC2_p7_k2_3 t_FIRE_KILN2_k2_1))) (let ((?v_17 (<= ?v_66 10)) (?v_64 (- t_BAKE_CERAMIC2_p7_k2_2 t_FIRE_KILN2_k2_1))) (let ((?v_18 (<= ?v_64 10)) (?v_63 (- t_BAKE_CERAMIC2_p8_k2_3 t_FIRE_KILN2_k2_1))) (let ((?v_19 (<= ?v_63 10)) (?v_61 (- t_BAKE_CERAMIC2_p8_k2_2 t_FIRE_KILN2_k2_1))) (let ((?v_20 (<= ?v_61 10)) (?v_58 (- t_BAKE_CERAMIC2_p5_k2_3 t_FIRE_KILN2_k2_1))) (let ((?v_21 (<= ?v_58 10)) (?v_56 (- t_BAKE_CERAMIC2_p5_k2_2 t_FIRE_KILN2_k2_1))) (let ((?v_22 (<= ?v_56 10)) (?v_55 (- t_BAKE_CERAMIC2_p6_k2_3 t_FIRE_KILN2_k2_1))) (let ((?v_23 (<= ?v_55 10)) (?v_53 (- t_BAKE_CERAMIC2_p6_k2_2 t_FIRE_KILN2_k2_1))) (let ((?v_24 (<= ?v_53 10)) (?v_39 (- t_BAKE_CERAMIC1_p3_k2_2 t_FIRE_KILN2_k2_1))) (let ((?v_25 (<= ?v_39 5)) (?v_36 (- t_BAKE_CERAMIC1_p4_k2_2 t_FIRE_KILN2_k2_1))) (let ((?v_26 (<= ?v_36 5)) (?v_28 (- t_BAKE_CERAMIC1_p1_k2_2 t_FIRE_KILN2_k2_1))) (let ((?v_27 (<= ?v_28 5)) (?v_0 (- t_BAKE_CERAMIC1_p2_k2_2 t_FIRE_KILN2_k2_1)) (?v_1 (- t_TREAT_CERAMIC1_p2_3 t_BAKE_CERAMIC1_p2_k2_2)) (?v_41 (- t_BAKE_CERAMIC1_p3_k2_3 t_FIRE_KILN2_k2_2))) (let ((?v_30 (<= ?v_41 5)) (?v_38 (- t_BAKE_CERAMIC1_p4_k2_3 t_FIRE_KILN2_k2_2))) (let ((?v_31 (<= ?v_38 5)) (?v_33 (- t_BAKE_CERAMIC1_p1_k2_3 t_FIRE_KILN2_k2_2))) (let ((?v_32 (<= ?v_33 5)) (?v_2 (- t_BAKE_CERAMIC1_p2_k2_3 t_FIRE_KILN2_k2_2)) (?v_29 (- t_TREAT_CERAMIC1_p1_3 t_BAKE_CERAMIC1_p1_k2_2)) (?v_124 (- t_BAKE_STRUCTURE_p19_p20_k1_5 t_FIRE_KILN1_k1_1))) (let ((?v_42 (<= ?v_124 5)) (?v_116 (- t_BAKE_STRUCTURE_p17_p18_k1_5 t_FIRE_KILN1_k1_1))) (let ((?v_43 (<= ?v_116 5)) (?v_108 (- t_BAKE_STRUCTURE_p15_p16_k1_5 t_FIRE_KILN1_k1_1))) (let ((?v_44 (<= ?v_108 5)) (?v_100 (- t_BAKE_STRUCTURE_p13_p14_k1_5 t_FIRE_KILN1_k1_1))) (let ((?v_45 (<= ?v_100 5)) (?v_92 (- t_BAKE_STRUCTURE_p11_p12_k1_5 t_FIRE_KILN1_k1_1))) (let ((?v_46 (<= ?v_92 5)) (?v_75 (- t_BAKE_STRUCTURE_p9_p10_k1_5 t_FIRE_KILN1_k1_1))) (let ((?v_47 (<= ?v_75 5)) (?v_67 (- t_BAKE_STRUCTURE_p7_p8_k1_5 t_FIRE_KILN1_k1_1))) (let ((?v_48 (<= ?v_67 5)) (?v_59 (- t_BAKE_STRUCTURE_p5_p6_k1_5 t_FIRE_KILN1_k1_1))) (let ((?v_49 (<= ?v_59 5)) (?v_51 (- t_BAKE_STRUCTURE_p3_p4_k1_5 t_FIRE_KILN1_k1_1))) (let ((?v_50 (<= ?v_51 5)) (?v_34 (- t_BAKE_STRUCTURE_p1_p2_k1_5 t_FIRE_KILN1_k1_1)) (?v_37 (- t_TREAT_CERAMIC1_p4_3 t_BAKE_CERAMIC1_p4_k2_2)) (?v_40 (- t_TREAT_CERAMIC1_p3_3 t_BAKE_CERAMIC1_p3_k2_2)) (?v_54 (- t_TREAT_CERAMIC2_p6_3 t_BAKE_CERAMIC2_p6_k2_2)) (?v_57 (- t_TREAT_CERAMIC2_p5_3 t_BAKE_CERAMIC2_p5_k2_2)) (?v_62 (- t_TREAT_CERAMIC2_p8_3 t_BAKE_CERAMIC2_p8_k2_2)) (?v_65 (- t_TREAT_CERAMIC2_p7_3 t_BAKE_CERAMIC2_p7_k2_2)) (?v_70 (- t_TREAT_CERAMIC2_p10_3 t_BAKE_CERAMIC2_p10_k2_2)) (?v_73 (- t_TREAT_CERAMIC2_p9_3 t_BAKE_CERAMIC2_p9_k2_2)) (?v_78 (- t_TREAT_CERAMIC3_p12_3 t_BAKE_CERAMIC3_p12_k2_2)) (?v_123 (- t_BAKE_CERAMIC3_p19_k1_3 t_FIRE_KILN1_k1_2))) (let ((?v_82 (<= ?v_123 3)) (?v_120 (- t_BAKE_CERAMIC3_p20_k1_3 t_FIRE_KILN1_k1_2))) (let ((?v_83 (<= ?v_120 3)) (?v_115 (- t_BAKE_CERAMIC3_p17_k1_3 t_FIRE_KILN1_k1_2))) (let ((?v_84 (<= ?v_115 3)) (?v_112 (- t_BAKE_CERAMIC3_p18_k1_3 t_FIRE_KILN1_k1_2))) (let ((?v_85 (<= ?v_112 3)) (?v_107 (- t_BAKE_CERAMIC3_p15_k1_3 t_FIRE_KILN1_k1_2))) (let ((?v_86 (<= ?v_107 3)) (?v_104 (- t_BAKE_CERAMIC3_p16_k1_3 t_FIRE_KILN1_k1_2))) (let ((?v_87 (<= ?v_104 3)) (?v_99 (- t_BAKE_CERAMIC3_p13_k1_3 t_FIRE_KILN1_k1_2))) (let ((?v_88 (<= ?v_99 3)) (?v_96 (- t_BAKE_CERAMIC3_p14_k1_3 t_FIRE_KILN1_k1_2))) (let ((?v_89 (<= ?v_96 3)) (?v_91 (- t_BAKE_CERAMIC3_p11_k1_3 t_FIRE_KILN1_k1_2))) (let ((?v_90 (<= ?v_91 3)) (?v_79 (- t_BAKE_CERAMIC3_p12_k1_3 t_FIRE_KILN1_k1_2)) (?v_81 (- t_TREAT_CERAMIC3_p11_3 t_BAKE_CERAMIC3_p11_k2_2)) (?v_95 (- t_TREAT_CERAMIC3_p14_3 t_BAKE_CERAMIC3_p14_k2_2)) (?v_98 (- t_TREAT_CERAMIC3_p13_3 t_BAKE_CERAMIC3_p13_k2_2)) (?v_103 (- t_TREAT_CERAMIC3_p16_3 t_BAKE_CERAMIC3_p16_k2_2)) (?v_106 (- t_TREAT_CERAMIC3_p15_3 t_BAKE_CERAMIC3_p15_k2_2)) (?v_111 (- t_TREAT_CERAMIC3_p18_3 t_BAKE_CERAMIC3_p18_k2_2)) (?v_114 (- t_TREAT_CERAMIC3_p17_3 t_BAKE_CERAMIC3_p17_k2_2)) (?v_119 (- t_TREAT_CERAMIC3_p20_3 t_BAKE_CERAMIC3_p20_k2_2)) (?v_122 (- t_TREAT_CERAMIC3_p19_3 t_BAKE_CERAMIC3_p19_k2_2)) (?v_170 (- t_BAKE_CERAMIC1_p3_k2_3 t_FIRE_KILN2_k2_1)) (?v_126 (> (- t_FIRE_KILN2_k2_2 t_FIRE_KILN2_k2_1) 20))) (let ((?v_131 (or (<= ?v_170 5) ?v_126)) (?v_166 (- t_BAKE_CERAMIC1_p4_k2_3 t_FIRE_KILN2_k2_1))) (let ((?v_132 (or (<= ?v_166 5) ?v_126)) (?v_161 (- t_BAKE_CERAMIC1_p1_k2_3 t_FIRE_KILN2_k2_1))) (let ((?v_133 (or (<= ?v_161 5) ?v_126)) (?v_130 (- t_BAKE_CERAMIC1_p2_k2_3 t_FIRE_KILN2_k2_1)) (?v_129 (> (- t_FIRE_KILN2_k2_1 t_FIRE_KILN2_k2_2) 20)) (?v_128 (- t_BAKE_CERAMIC1_p2_k2_2 t_BAKE_CERAMIC1_p2_k2_3)) (?v_127 (- t_BAKE_CERAMIC1_p2_k2_3 t_BAKE_CERAMIC1_p2_k2_2))) (let ((?v_137 (or (<= (- t_BAKE_CERAMIC3_p19_k2_2 t_FIRE_KILN2_k2_2) 15) ?v_129)) (?v_138 (or (<= (- t_BAKE_CERAMIC3_p20_k2_2 t_FIRE_KILN2_k2_2) 15) ?v_129)) (?v_139 (or (<= (- t_BAKE_CERAMIC3_p17_k2_2 t_FIRE_KILN2_k2_2) 15) ?v_129)) (?v_140 (or (<= (- t_BAKE_CERAMIC3_p18_k2_2 t_FIRE_KILN2_k2_2) 15) ?v_129)) (?v_141 (or (<= (- t_BAKE_CERAMIC3_p15_k2_2 t_FIRE_KILN2_k2_2) 15) ?v_129)) (?v_142 (or (<= (- t_BAKE_CERAMIC3_p16_k2_2 t_FIRE_KILN2_k2_2) 15) ?v_129)) (?v_143 (or (<= (- t_BAKE_CERAMIC3_p13_k2_2 t_FIRE_KILN2_k2_2) 15) ?v_129)) (?v_144 (or (<= (- t_BAKE_CERAMIC3_p14_k2_2 t_FIRE_KILN2_k2_2) 15) ?v_129)) (?v_145 (or (<= (- t_BAKE_CERAMIC3_p11_k2_2 t_FIRE_KILN2_k2_2) 15) ?v_129)) (?v_146 (or (<= (- t_BAKE_CERAMIC3_p12_k2_2 t_FIRE_KILN2_k2_2) 15) ?v_129)) (?v_147 (or (<= (- t_BAKE_CERAMIC2_p9_k2_3 t_FIRE_KILN2_k2_2) 10) ?v_129)) (?v_148 (or (<= (- t_BAKE_CERAMIC2_p9_k2_2 t_FIRE_KILN2_k2_2) 10) ?v_129)) (?v_149 (or (<= (- t_BAKE_CERAMIC2_p10_k2_3 t_FIRE_KILN2_k2_2) 10) ?v_129)) (?v_150 (or (<= (- t_BAKE_CERAMIC2_p10_k2_2 t_FIRE_KILN2_k2_2) 10) ?v_129)) (?v_151 (or (<= (- t_BAKE_CERAMIC2_p7_k2_3 t_FIRE_KILN2_k2_2) 10) ?v_129)) (?v_152 (or (<= (- t_BAKE_CERAMIC2_p7_k2_2 t_FIRE_KILN2_k2_2) 10) ?v_129)) (?v_153 (or (<= (- t_BAKE_CERAMIC2_p8_k2_3 t_FIRE_KILN2_k2_2) 10) ?v_129)) (?v_154 (or (<= (- t_BAKE_CERAMIC2_p8_k2_2 t_FIRE_KILN2_k2_2) 10) ?v_129)) (?v_155 (or (<= (- t_BAKE_CERAMIC2_p5_k2_3 t_FIRE_KILN2_k2_2) 10) ?v_129)) (?v_156 (or (<= (- t_BAKE_CERAMIC2_p5_k2_2 t_FIRE_KILN2_k2_2) 10) ?v_129)) (?v_157 (or (<= (- t_BAKE_CERAMIC2_p6_k2_3 t_FIRE_KILN2_k2_2) 10) ?v_129)) (?v_158 (or (<= (- t_BAKE_CERAMIC2_p6_k2_2 t_FIRE_KILN2_k2_2) 10) ?v_129)) (?v_167 (- t_BAKE_CERAMIC1_p3_k2_2 t_FIRE_KILN2_k2_2))) (let ((?v_159 (or (<= ?v_167 5) ?v_129)) (?v_163 (- t_BAKE_CERAMIC1_p4_k2_2 t_FIRE_KILN2_k2_2))) (let ((?v_160 (or (<= ?v_163 5) ?v_129)) (?v_134 (- t_BAKE_CERAMIC1_p1_k2_2 t_FIRE_KILN2_k2_2)) (?v_136 (- t_BAKE_CERAMIC1_p1_k2_2 t_BAKE_CERAMIC1_p1_k2_3)) (?v_135 (- t_BAKE_CERAMIC1_p1_k2_3 t_BAKE_CERAMIC1_p1_k2_2)) (?v_232 (- t_BAKE_CERAMIC3_p19_k1_3 t_FIRE_KILN1_k1_1)) (?v_162 (> (- t_FIRE_KILN1_k1_2 t_FIRE_KILN1_k1_1) 8))) (let ((?v_171 (or (<= ?v_232 3) ?v_162)) (?v_229 (- t_BAKE_CERAMIC3_p20_k1_3 t_FIRE_KILN1_k1_1))) (let ((?v_172 (or (<= ?v_229 3) ?v_162)) (?v_225 (- t_BAKE_CERAMIC3_p17_k1_3 t_FIRE_KILN1_k1_1))) (let ((?v_173 (or (<= ?v_225 3) ?v_162)) (?v_222 (- t_BAKE_CERAMIC3_p18_k1_3 t_FIRE_KILN1_k1_1))) (let ((?v_174 (or (<= ?v_222 3) ?v_162)) (?v_218 (- t_BAKE_CERAMIC3_p15_k1_3 t_FIRE_KILN1_k1_1))) (let ((?v_175 (or (<= ?v_218 3) ?v_162)) (?v_215 (- t_BAKE_CERAMIC3_p16_k1_3 t_FIRE_KILN1_k1_1))) (let ((?v_176 (or (<= ?v_215 3) ?v_162)) (?v_211 (- t_BAKE_CERAMIC3_p13_k1_3 t_FIRE_KILN1_k1_1))) (let ((?v_177 (or (<= ?v_211 3) ?v_162)) (?v_208 (- t_BAKE_CERAMIC3_p14_k1_3 t_FIRE_KILN1_k1_1))) (let ((?v_178 (or (<= ?v_208 3) ?v_162)) (?v_204 (- t_BAKE_CERAMIC3_p11_k1_3 t_FIRE_KILN1_k1_1))) (let ((?v_179 (or (<= ?v_204 3) ?v_162)) (?v_196 (- t_BAKE_CERAMIC3_p12_k1_3 t_FIRE_KILN1_k1_1))) (let ((?v_180 (or (<= ?v_196 3) ?v_162)) (?v_181 (> (- t_FIRE_KILN1_k1_1 t_FIRE_KILN1_k1_2) 8)) (?v_165 (- t_BAKE_CERAMIC1_p4_k2_2 t_BAKE_CERAMIC1_p4_k2_3)) (?v_164 (- t_BAKE_CERAMIC1_p4_k2_3 t_BAKE_CERAMIC1_p4_k2_2)) (?v_169 (- t_BAKE_CERAMIC1_p3_k2_2 t_BAKE_CERAMIC1_p3_k2_3)) (?v_168 (- t_BAKE_CERAMIC1_p3_k2_3 t_BAKE_CERAMIC1_p3_k2_2)) (?v_183 (- t_BAKE_CERAMIC2_p6_k2_2 t_BAKE_CERAMIC2_p6_k2_3)) (?v_182 (- t_BAKE_CERAMIC2_p6_k2_3 t_BAKE_CERAMIC2_p6_k2_2)) (?v_185 (- t_BAKE_CERAMIC2_p5_k2_2 t_BAKE_CERAMIC2_p5_k2_3)) (?v_184 (- t_BAKE_CERAMIC2_p5_k2_3 t_BAKE_CERAMIC2_p5_k2_2)) (?v_187 (- t_BAKE_CERAMIC2_p8_k2_2 t_BAKE_CERAMIC2_p8_k2_3)) (?v_186 (- t_BAKE_CERAMIC2_p8_k2_3 t_BAKE_CERAMIC2_p8_k2_2)) (?v_189 (- t_BAKE_CERAMIC2_p7_k2_2 t_BAKE_CERAMIC2_p7_k2_3)) (?v_188 (- t_BAKE_CERAMIC2_p7_k2_3 t_BAKE_CERAMIC2_p7_k2_2)) (?v_191 (- t_BAKE_CERAMIC2_p10_k2_2 t_BAKE_CERAMIC2_p10_k2_3)) (?v_190 (- t_BAKE_CERAMIC2_p10_k2_3 t_BAKE_CERAMIC2_p10_k2_2)) (?v_193 (- t_BAKE_CERAMIC2_p9_k2_2 t_BAKE_CERAMIC2_p9_k2_3)) (?v_192 (- t_BAKE_CERAMIC2_p9_k2_3 t_BAKE_CERAMIC2_p9_k2_2)) (?v_195 (- t_BAKE_CERAMIC3_p12_k2_2 t_BAKE_CERAMIC3_p12_k1_3)) (?v_194 (- t_BAKE_CERAMIC3_p12_k1_3 t_BAKE_CERAMIC3_p12_k2_2))) (let ((?v_199 (or (<= (- t_BAKE_STRUCTURE_p19_p20_k1_5 t_FIRE_KILN1_k1_2) 5) ?v_181)) (?v_226 (- t_BAKE_STRUCTURE_p17_p18_k1_5 t_FIRE_KILN1_k1_2))) (let ((?v_200 (or (<= ?v_226 5) ?v_181)) (?v_219 (- t_BAKE_STRUCTURE_p15_p16_k1_5 t_FIRE_KILN1_k1_2))) (let ((?v_201 (or (<= ?v_219 5) ?v_181)) (?v_212 (- t_BAKE_STRUCTURE_p13_p14_k1_5 t_FIRE_KILN1_k1_2))) (let ((?v_202 (or (<= ?v_212 5) ?v_181)) (?v_205 (- t_BAKE_STRUCTURE_p11_p12_k1_5 t_FIRE_KILN1_k1_2))) (let ((?v_203 (or (<= ?v_205 5) ?v_181)) (?v_198 (- t_BAKE_CERAMIC3_p11_k2_2 t_BAKE_CERAMIC3_p11_k1_3)) (?v_197 (- t_BAKE_CERAMIC3_p11_k1_3 t_BAKE_CERAMIC3_p11_k2_2)) (?v_207 (- t_BAKE_CERAMIC3_p14_k2_2 t_BAKE_CERAMIC3_p14_k1_3)) (?v_206 (- t_BAKE_CERAMIC3_p14_k1_3 t_BAKE_CERAMIC3_p14_k2_2)) (?v_210 (- t_BAKE_CERAMIC3_p13_k2_2 t_BAKE_CERAMIC3_p13_k1_3)) (?v_209 (- t_BAKE_CERAMIC3_p13_k1_3 t_BAKE_CERAMIC3_p13_k2_2)) (?v_214 (- t_BAKE_CERAMIC3_p16_k2_2 t_BAKE_CERAMIC3_p16_k1_3)) (?v_213 (- t_BAKE_CERAMIC3_p16_k1_3 t_BAKE_CERAMIC3_p16_k2_2)) (?v_217 (- t_BAKE_CERAMIC3_p15_k2_2 t_BAKE_CERAMIC3_p15_k1_3)) (?v_216 (- t_BAKE_CERAMIC3_p15_k1_3 t_BAKE_CERAMIC3_p15_k2_2)) (?v_221 (- t_BAKE_CERAMIC3_p18_k2_2 t_BAKE_CERAMIC3_p18_k1_3)) (?v_220 (- t_BAKE_CERAMIC3_p18_k1_3 t_BAKE_CERAMIC3_p18_k2_2)) (?v_224 (- t_BAKE_CERAMIC3_p17_k2_2 t_BAKE_CERAMIC3_p17_k1_3)) (?v_223 (- t_BAKE_CERAMIC3_p17_k1_3 t_BAKE_CERAMIC3_p17_k2_2)) (?v_228 (- t_BAKE_CERAMIC3_p20_k2_2 t_BAKE_CERAMIC3_p20_k1_3)) (?v_227 (- t_BAKE_CERAMIC3_p20_k1_3 t_BAKE_CERAMIC3_p20_k2_2)) (?v_231 (- t_BAKE_CERAMIC3_p19_k2_2 t_BAKE_CERAMIC3_p19_k1_3)) (?v_230 (- t_BAKE_CERAMIC3_p19_k1_3 t_BAKE_CERAMIC3_p19_k2_2))) (and (= St_spy_variable (+ 1 t_Init_0)) (>= t_Goal_6 t_Init_0) (>= (- t_BAKE_CERAMIC1_p2_k2_2 t_Init_0) 0) (>= (- t_Goal_6 t_BAKE_CERAMIC1_p2_k2_2) 15) (>= (- t_TREAT_CERAMIC1_p2_3 t_Init_0) 0) (>= (- t_Goal_6 t_TREAT_CERAMIC1_p2_3) 3) (>= (- t_BAKE_CERAMIC1_p2_k2_3 t_Init_0) 0) (>= (- t_Goal_6 t_BAKE_CERAMIC1_p2_k2_3) 15) (>= (- t_BAKE_CERAMIC1_p1_k2_2 t_Init_0) 0) (>= (- t_Goal_6 t_BAKE_CERAMIC1_p1_k2_2) 15) (>= (- t_TREAT_CERAMIC1_p1_3 t_Init_0) 0) (>= (- t_Goal_6 t_TREAT_CERAMIC1_p1_3) 3) (>= (- t_BAKE_CERAMIC1_p1_k2_3 t_Init_0) 0) (>= (- t_Goal_6 t_BAKE_CERAMIC1_p1_k2_3) 15) (>= (- t_MAKE_STRUCTURE_p1_p2_4 t_Init_0) 0) (>= (- t_Goal_6 t_MAKE_STRUCTURE_p1_p2_4) 1) (>= (- t_BAKE_STRUCTURE_p1_p2_k1_5 t_Init_0) 0) (>= ?v_35 3) (>= (- t_BAKE_CERAMIC1_p4_k2_2 t_Init_0) 0) (>= (- t_Goal_6 t_BAKE_CERAMIC1_p4_k2_2) 15) (>= (- t_TREAT_CERAMIC1_p4_3 t_Init_0) 0) (>= (- t_Goal_6 t_TREAT_CERAMIC1_p4_3) 3) (>= (- t_BAKE_CERAMIC1_p4_k2_3 t_Init_0) 0) (>= (- t_Goal_6 t_BAKE_CERAMIC1_p4_k2_3) 15) (>= (- t_BAKE_CERAMIC1_p3_k2_2 t_Init_0) 0) (>= (- t_Goal_6 t_BAKE_CERAMIC1_p3_k2_2) 15) (>= (- t_TREAT_CERAMIC1_p3_3 t_Init_0) 0) (>= (- t_Goal_6 t_TREAT_CERAMIC1_p3_3) 3) (>= (- t_FIRE_KILN2_k2_2 t_Init_0) 0) (>= (- t_Goal_6 t_FIRE_KILN2_k2_2) 20) (>= (- t_BAKE_CERAMIC1_p3_k2_3 t_Init_0) 0) (>= (- t_Goal_6 t_BAKE_CERAMIC1_p3_k2_3) 15) (>= (- t_MAKE_STRUCTURE_p3_p4_4 t_Init_0) 0) (>= (- t_Goal_6 t_MAKE_STRUCTURE_p3_p4_4) 1) (>= (- t_BAKE_STRUCTURE_p3_p4_k1_5 t_Init_0) 0) (>= ?v_52 3) (>= (- t_BAKE_CERAMIC2_p6_k2_2 t_Init_0) 0) (>= (- t_Goal_6 t_BAKE_CERAMIC2_p6_k2_2) 10) (>= (- t_TREAT_CERAMIC2_p6_3 t_Init_0) 0) (>= (- t_Goal_6 t_TREAT_CERAMIC2_p6_3) 2) (>= (- t_BAKE_CERAMIC2_p6_k2_3 t_Init_0) 0) (>= (- t_Goal_6 t_BAKE_CERAMIC2_p6_k2_3) 10) (>= (- t_BAKE_CERAMIC2_p5_k2_2 t_Init_0) 0) (>= (- t_Goal_6 t_BAKE_CERAMIC2_p5_k2_2) 10) (>= (- t_TREAT_CERAMIC2_p5_3 t_Init_0) 0) (>= (- t_Goal_6 t_TREAT_CERAMIC2_p5_3) 2) (>= (- t_BAKE_CERAMIC2_p5_k2_3 t_Init_0) 0) (>= (- t_Goal_6 t_BAKE_CERAMIC2_p5_k2_3) 10) (>= (- t_MAKE_STRUCTURE_p5_p6_4 t_Init_0) 0) (>= (- t_Goal_6 t_MAKE_STRUCTURE_p5_p6_4) 1) (>= (- t_BAKE_STRUCTURE_p5_p6_k1_5 t_Init_0) 0) (>= ?v_60 3) (>= (- t_BAKE_CERAMIC2_p8_k2_2 t_Init_0) 0) (>= (- t_Goal_6 t_BAKE_CERAMIC2_p8_k2_2) 10) (>= (- t_TREAT_CERAMIC2_p8_3 t_Init_0) 0) (>= (- t_Goal_6 t_TREAT_CERAMIC2_p8_3) 2) (>= (- t_BAKE_CERAMIC2_p8_k2_3 t_Init_0) 0) (>= (- t_Goal_6 t_BAKE_CERAMIC2_p8_k2_3) 10) (>= (- t_BAKE_CERAMIC2_p7_k2_2 t_Init_0) 0) (>= (- t_Goal_6 t_BAKE_CERAMIC2_p7_k2_2) 10) (>= (- t_TREAT_CERAMIC2_p7_3 t_Init_0) 0) (>= (- t_Goal_6 t_TREAT_CERAMIC2_p7_3) 2) (>= (- t_BAKE_CERAMIC2_p7_k2_3 t_Init_0) 0) (>= (- t_Goal_6 t_BAKE_CERAMIC2_p7_k2_3) 10) (>= (- t_MAKE_STRUCTURE_p7_p8_4 t_Init_0) 0) (>= (- t_Goal_6 t_MAKE_STRUCTURE_p7_p8_4) 1) (>= (- t_BAKE_STRUCTURE_p7_p8_k1_5 t_Init_0) 0) (>= ?v_68 3) (>= (- t_BAKE_CERAMIC2_p10_k2_2 t_Init_0) 0) (>= (- t_Goal_6 t_BAKE_CERAMIC2_p10_k2_2) 10) (>= (- t_TREAT_CERAMIC2_p10_3 t_Init_0) 0) (>= (- t_Goal_6 t_TREAT_CERAMIC2_p10_3) 2) (>= (- t_BAKE_CERAMIC2_p10_k2_3 t_Init_0) 0) (>= (- t_Goal_6 t_BAKE_CERAMIC2_p10_k2_3) 10) (>= (- t_BAKE_CERAMIC2_p9_k2_2 t_Init_0) 0) (>= (- t_Goal_6 t_BAKE_CERAMIC2_p9_k2_2) 10) (>= (- t_TREAT_CERAMIC2_p9_3 t_Init_0) 0) (>= (- t_Goal_6 t_TREAT_CERAMIC2_p9_3) 2) (>= (- t_BAKE_CERAMIC2_p9_k2_3 t_Init_0) 0) (>= (- t_Goal_6 t_BAKE_CERAMIC2_p9_k2_3) 10) (>= (- t_MAKE_STRUCTURE_p9_p10_4 t_Init_0) 0) (>= (- t_Goal_6 t_MAKE_STRUCTURE_p9_p10_4) 1) (>= (- t_BAKE_STRUCTURE_p9_p10_k1_5 t_Init_0) 0) (>= ?v_76 3) (>= (- t_BAKE_CERAMIC3_p12_k2_2 t_Init_0) 0) (>= (- t_Goal_6 t_BAKE_CERAMIC3_p12_k2_2) 5) (>= (- t_TREAT_CERAMIC3_p12_3 t_Init_0) 0) (>= (- t_Goal_6 t_TREAT_CERAMIC3_p12_3) 1) (>= (- t_BAKE_CERAMIC3_p12_k1_3 t_Init_0) 0) (>= (- t_Goal_6 t_BAKE_CERAMIC3_p12_k1_3) 5) (>= (- t_BAKE_CERAMIC3_p11_k2_2 t_Init_0) 0) (>= (- t_Goal_6 t_BAKE_CERAMIC3_p11_k2_2) 5) (>= (- t_TREAT_CERAMIC3_p11_3 t_Init_0) 0) (>= (- t_Goal_6 t_TREAT_CERAMIC3_p11_3) 1) (>= (- t_BAKE_CERAMIC3_p11_k1_3 t_Init_0) 0) (>= (- t_Goal_6 t_BAKE_CERAMIC3_p11_k1_3) 5) (>= (- t_MAKE_STRUCTURE_p11_p12_4 t_Init_0) 0) (>= (- t_Goal_6 t_MAKE_STRUCTURE_p11_p12_4) 1) (>= (- t_BAKE_STRUCTURE_p11_p12_k1_5 t_Init_0) 0) (>= ?v_93 3) (>= (- t_BAKE_CERAMIC3_p14_k2_2 t_Init_0) 0) (>= (- t_Goal_6 t_BAKE_CERAMIC3_p14_k2_2) 5) (>= (- t_TREAT_CERAMIC3_p14_3 t_Init_0) 0) (>= (- t_Goal_6 t_TREAT_CERAMIC3_p14_3) 1) (>= (- t_BAKE_CERAMIC3_p14_k1_3 t_Init_0) 0) (>= (- t_Goal_6 t_BAKE_CERAMIC3_p14_k1_3) 5) (>= (- t_BAKE_CERAMIC3_p13_k2_2 t_Init_0) 0) (>= (- t_Goal_6 t_BAKE_CERAMIC3_p13_k2_2) 5) (>= (- t_TREAT_CERAMIC3_p13_3 t_Init_0) 0) (>= (- t_Goal_6 t_TREAT_CERAMIC3_p13_3) 1) (>= (- t_BAKE_CERAMIC3_p13_k1_3 t_Init_0) 0) (>= (- t_Goal_6 t_BAKE_CERAMIC3_p13_k1_3) 5) (>= (- t_MAKE_STRUCTURE_p13_p14_4 t_Init_0) 0) (>= (- t_Goal_6 t_MAKE_STRUCTURE_p13_p14_4) 1) (>= (- t_BAKE_STRUCTURE_p13_p14_k1_5 t_Init_0) 0) (>= ?v_101 3) (>= (- t_BAKE_CERAMIC3_p16_k2_2 t_Init_0) 0) (>= (- t_Goal_6 t_BAKE_CERAMIC3_p16_k2_2) 5) (>= (- t_TREAT_CERAMIC3_p16_3 t_Init_0) 0) (>= (- t_Goal_6 t_TREAT_CERAMIC3_p16_3) 1) (>= (- t_BAKE_CERAMIC3_p16_k1_3 t_Init_0) 0) (>= (- t_Goal_6 t_BAKE_CERAMIC3_p16_k1_3) 5) (>= (- t_BAKE_CERAMIC3_p15_k2_2 t_Init_0) 0) (>= (- t_Goal_6 t_BAKE_CERAMIC3_p15_k2_2) 5) (>= (- t_TREAT_CERAMIC3_p15_3 t_Init_0) 0) (>= (- t_Goal_6 t_TREAT_CERAMIC3_p15_3) 1) (>= (- t_BAKE_CERAMIC3_p15_k1_3 t_Init_0) 0) (>= (- t_Goal_6 t_BAKE_CERAMIC3_p15_k1_3) 5) (>= (- t_MAKE_STRUCTURE_p15_p16_4 t_Init_0) 0) (>= (- t_Goal_6 t_MAKE_STRUCTURE_p15_p16_4) 1) (>= (- t_BAKE_STRUCTURE_p15_p16_k1_5 t_Init_0) 0) (>= ?v_109 3) (>= (- t_BAKE_CERAMIC3_p18_k2_2 t_Init_0) 0) (>= (- t_Goal_6 t_BAKE_CERAMIC3_p18_k2_2) 5) (>= (- t_TREAT_CERAMIC3_p18_3 t_Init_0) 0) (>= (- t_Goal_6 t_TREAT_CERAMIC3_p18_3) 1) (>= (- t_BAKE_CERAMIC3_p18_k1_3 t_Init_0) 0) (>= (- t_Goal_6 t_BAKE_CERAMIC3_p18_k1_3) 5) (>= (- t_BAKE_CERAMIC3_p17_k2_2 t_Init_0) 0) (>= (- t_Goal_6 t_BAKE_CERAMIC3_p17_k2_2) 5) (>= (- t_TREAT_CERAMIC3_p17_3 t_Init_0) 0) (>= (- t_Goal_6 t_TREAT_CERAMIC3_p17_3) 1) (>= (- t_BAKE_CERAMIC3_p17_k1_3 t_Init_0) 0) (>= (- t_Goal_6 t_BAKE_CERAMIC3_p17_k1_3) 5) (>= (- t_MAKE_STRUCTURE_p17_p18_4 t_Init_0) 0) (>= (- t_Goal_6 t_MAKE_STRUCTURE_p17_p18_4) 1) (>= (- t_BAKE_STRUCTURE_p17_p18_k1_5 t_Init_0) 0) (>= ?v_117 3) (>= (- t_BAKE_CERAMIC3_p20_k2_2 t_Init_0) 0) (>= (- t_Goal_6 t_BAKE_CERAMIC3_p20_k2_2) 5) (>= (- t_TREAT_CERAMIC3_p20_3 t_Init_0) 0) (>= (- t_Goal_6 t_TREAT_CERAMIC3_p20_3) 1) (>= (- t_BAKE_CERAMIC3_p20_k1_3 t_Init_0) 0) (>= (- t_Goal_6 t_BAKE_CERAMIC3_p20_k1_3) 5) (>= (- t_FIRE_KILN2_k2_1 t_Init_0) 0) (>= (- t_Goal_6 t_FIRE_KILN2_k2_1) 20) (>= (- t_BAKE_CERAMIC3_p19_k2_2 t_Init_0) 0) (>= (- t_Goal_6 t_BAKE_CERAMIC3_p19_k2_2) 5) (>= (- t_TREAT_CERAMIC3_p19_3 t_Init_0) 0) (>= (- t_Goal_6 t_TREAT_CERAMIC3_p19_3) 1) (>= (- t_FIRE_KILN1_k1_2 t_Init_0) 0) (>= (- t_Goal_6 t_FIRE_KILN1_k1_2) 8) (>= (- t_BAKE_CERAMIC3_p19_k1_3 t_Init_0) 0) (>= (- t_Goal_6 t_BAKE_CERAMIC3_p19_k1_3) 5) (>= (- t_MAKE_STRUCTURE_p19_p20_4 t_Init_0) 0) (>= (- t_Goal_6 t_MAKE_STRUCTURE_p19_p20_4) 1) (>= (- t_FIRE_KILN1_k1_1 t_Init_0) 0) (>= (- t_Goal_6 t_FIRE_KILN1_k1_1) 8) (>= (- t_BAKE_STRUCTURE_p19_p20_k1_5 t_Init_0) 0) (>= ?v_125 3) ?v_3 ?v_4 ?v_5 ?v_6 ?v_7 ?v_8 ?v_9 ?v_10 ?v_11 ?v_12 ?v_13 ?v_14 ?v_15 ?v_16 ?v_17 ?v_18 ?v_19 ?v_20 ?v_21 ?v_22 ?v_23 ?v_24 ?v_25 ?v_26 ?v_27 (<= ?v_0 5) (< ?v_0 5) (>= ?v_0 2) (<= ?v_1 12) (>= ?v_1 0) (>= (- t_MAKE_STRUCTURE_p1_p2_4 t_TREAT_CERAMIC1_p2_3) 3) ?v_30 ?v_31 ?v_32 (<= ?v_2 5) (< ?v_2 5) (>= ?v_2 2) (>= (- t_MAKE_STRUCTURE_p1_p2_4 t_BAKE_CERAMIC1_p2_k2_3) 15) ?v_3 ?v_4 ?v_5 ?v_6 ?v_7 ?v_8 ?v_9 ?v_10 ?v_11 ?v_12 ?v_13 ?v_14 ?v_15 ?v_16 ?v_17 ?v_18 ?v_19 ?v_20 ?v_21 ?v_22 ?v_23 ?v_24 ?v_25 ?v_26 ?v_27 (< ?v_28 5) (>= ?v_28 2) (<= ?v_29 12) (>= ?v_29 0) (>= (- t_MAKE_STRUCTURE_p1_p2_4 t_TREAT_CERAMIC1_p1_3) 3) ?v_30 ?v_31 ?v_32 (< ?v_33 5) (>= ?v_33 2) (>= (- t_MAKE_STRUCTURE_p1_p2_4 t_BAKE_CERAMIC1_p1_k2_3) 15) (>= (- t_BAKE_STRUCTURE_p1_p2_k1_5 t_MAKE_STRUCTURE_p1_p2_4) 1) ?v_42 ?v_43 ?v_44 ?v_45 ?v_46 ?v_47 ?v_48 ?v_49 ?v_50 (<= ?v_34 5) (< ?v_34 5) (>= ?v_34 1) (>= ?v_35 4) ?v_3 ?v_4 ?v_5 ?v_6 ?v_7 ?v_8 ?v_9 ?v_10 ?v_11 ?v_12 ?v_13 ?v_14 ?v_15 ?v_16 ?v_17 ?v_18 ?v_19 ?v_20 ?v_21 ?v_22 ?v_23 ?v_24 ?v_25 ?v_26 (< ?v_36 5) (>= ?v_36 2) (<= ?v_37 12) (>= ?v_37 0) (>= (- t_MAKE_STRUCTURE_p3_p4_4 t_TREAT_CERAMIC1_p4_3) 3) ?v_30 ?v_31 (< ?v_38 5) (>= ?v_38 2) (>= (- t_MAKE_STRUCTURE_p3_p4_4 t_BAKE_CERAMIC1_p4_k2_3) 15) ?v_3 ?v_4 ?v_5 ?v_6 ?v_7 ?v_8 ?v_9 ?v_10 ?v_11 ?v_12 ?v_13 ?v_14 ?v_15 ?v_16 ?v_17 ?v_18 ?v_19 ?v_20 ?v_21 ?v_22 ?v_23 ?v_24 ?v_25 (< ?v_39 5) (>= ?v_39 2) (<= ?v_40 12) (>= ?v_40 0) (>= (- t_MAKE_STRUCTURE_p3_p4_4 t_TREAT_CERAMIC1_p3_3) 3) ?v_30 (>= ?v_41 2) (>= (- t_MAKE_STRUCTURE_p3_p4_4 t_BAKE_CERAMIC1_p3_k2_3) 15) (>= (- t_BAKE_STRUCTURE_p3_p4_k1_5 t_MAKE_STRUCTURE_p3_p4_4) 1) ?v_42 ?v_43 ?v_44 ?v_45 ?v_46 ?v_47 ?v_48 ?v_49 ?v_50 (< ?v_51 5) (>= ?v_51 1) (>= ?v_52 4) ?v_3 ?v_4 ?v_5 ?v_6 ?v_7 ?v_8 ?v_9 ?v_10 ?v_11 ?v_12 ?v_13 ?v_14 ?v_15 ?v_16 ?v_17 ?v_18 ?v_19 ?v_20 ?v_21 ?v_22 ?v_23 ?v_24 (< ?v_53 10) (>= ?v_53 2) (<= ?v_54 8) (>= ?v_54 0) (>= (- t_MAKE_STRUCTURE_p5_p6_4 t_TREAT_CERAMIC2_p6_3) 2) ?v_3 ?v_4 ?v_5 ?v_6 ?v_7 ?v_8 ?v_9 ?v_10 ?v_11 ?v_12 ?v_13 ?v_14 ?v_15 ?v_16 ?v_17 ?v_18 ?v_19 ?v_20 ?v_21 ?v_22 ?v_23 (< ?v_55 10) (>= ?v_55 2) (>= (- t_MAKE_STRUCTURE_p5_p6_4 t_BAKE_CERAMIC2_p6_k2_3) 10) ?v_3 ?v_4 ?v_5 ?v_6 ?v_7 ?v_8 ?v_9 ?v_10 ?v_11 ?v_12 ?v_13 ?v_14 ?v_15 ?v_16 ?v_17 ?v_18 ?v_19 ?v_20 ?v_21 ?v_22 (< ?v_56 10) (>= ?v_56 2) (<= ?v_57 8) (>= ?v_57 0) (>= (- t_MAKE_STRUCTURE_p5_p6_4 t_TREAT_CERAMIC2_p5_3) 2) ?v_3 ?v_4 ?v_5 ?v_6 ?v_7 ?v_8 ?v_9 ?v_10 ?v_11 ?v_12 ?v_13 ?v_14 ?v_15 ?v_16 ?v_17 ?v_18 ?v_19 ?v_20 ?v_21 (< ?v_58 10) (>= ?v_58 2) (>= (- t_MAKE_STRUCTURE_p5_p6_4 t_BAKE_CERAMIC2_p5_k2_3) 10) (>= (- t_BAKE_STRUCTURE_p5_p6_k1_5 t_MAKE_STRUCTURE_p5_p6_4) 1) ?v_42 ?v_43 ?v_44 ?v_45 ?v_46 ?v_47 ?v_48 ?v_49 (< ?v_59 5) (>= ?v_59 1) (>= ?v_60 4) ?v_3 ?v_4 ?v_5 ?v_6 ?v_7 ?v_8 ?v_9 ?v_10 ?v_11 ?v_12 ?v_13 ?v_14 ?v_15 ?v_16 ?v_17 ?v_18 ?v_19 ?v_20 (< ?v_61 10) (>= ?v_61 2) (<= ?v_62 8) (>= ?v_62 0) (>= (- t_MAKE_STRUCTURE_p7_p8_4 t_TREAT_CERAMIC2_p8_3) 2) ?v_3 ?v_4 ?v_5 ?v_6 ?v_7 ?v_8 ?v_9 ?v_10 ?v_11 ?v_12 ?v_13 ?v_14 ?v_15 ?v_16 ?v_17 ?v_18 ?v_19 (< ?v_63 10) (>= ?v_63 2) (>= (- t_MAKE_STRUCTURE_p7_p8_4 t_BAKE_CERAMIC2_p8_k2_3) 10) ?v_3 ?v_4 ?v_5 ?v_6 ?v_7 ?v_8 ?v_9 ?v_10 ?v_11 ?v_12 ?v_13 ?v_14 ?v_15 ?v_16 ?v_17 ?v_18 (< ?v_64 10) (>= ?v_64 2) (<= ?v_65 8) (>= ?v_65 0) (>= (- t_MAKE_STRUCTURE_p7_p8_4 t_TREAT_CERAMIC2_p7_3) 2) ?v_3 ?v_4 ?v_5 ?v_6 ?v_7 ?v_8 ?v_9 ?v_10 ?v_11 ?v_12 ?v_13 ?v_14 ?v_15 ?v_16 ?v_17 (< ?v_66 10) (>= ?v_66 2) (>= (- t_MAKE_STRUCTURE_p7_p8_4 t_BAKE_CERAMIC2_p7_k2_3) 10) (>= (- t_BAKE_STRUCTURE_p7_p8_k1_5 t_MAKE_STRUCTURE_p7_p8_4) 1) ?v_42 ?v_43 ?v_44 ?v_45 ?v_46 ?v_47 ?v_48 (< ?v_67 5) (>= ?v_67 1) (>= ?v_68 4) ?v_3 ?v_4 ?v_5 ?v_6 ?v_7 ?v_8 ?v_9 ?v_10 ?v_11 ?v_12 ?v_13 ?v_14 ?v_15 ?v_16 (< ?v_69 10) (>= ?v_69 2) (<= ?v_70 8) (>= ?v_70 0) (>= (- t_MAKE_STRUCTURE_p9_p10_4 t_TREAT_CERAMIC2_p10_3) 2) ?v_3 ?v_4 ?v_5 ?v_6 ?v_7 ?v_8 ?v_9 ?v_10 ?v_11 ?v_12 ?v_13 ?v_14 ?v_15 (< ?v_71 10) (>= ?v_71 2) (>= (- t_MAKE_STRUCTURE_p9_p10_4 t_BAKE_CERAMIC2_p10_k2_3) 10) ?v_3 ?v_4 ?v_5 ?v_6 ?v_7 ?v_8 ?v_9 ?v_10 ?v_11 ?v_12 ?v_13 ?v_14 (< ?v_72 10) (>= ?v_72 2) (<= ?v_73 8) (>= ?v_73 0) (>= (- t_MAKE_STRUCTURE_p9_p10_4 t_TREAT_CERAMIC2_p9_3) 2) ?v_3 ?v_4 ?v_5 ?v_6 ?v_7 ?v_8 ?v_9 ?v_10 ?v_11 ?v_12 ?v_13 (< ?v_74 10) (>= ?v_74 2) (>= (- t_MAKE_STRUCTURE_p9_p10_4 t_BAKE_CERAMIC2_p9_k2_3) 10) (>= (- t_BAKE_STRUCTURE_p9_p10_k1_5 t_MAKE_STRUCTURE_p9_p10_4) 1) ?v_42 ?v_43 ?v_44 ?v_45 ?v_46 ?v_47 (< ?v_75 5) (>= ?v_75 1) (>= ?v_76 4) ?v_3 ?v_4 ?v_5 ?v_6 ?v_7 ?v_8 ?v_9 ?v_10 ?v_11 ?v_12 (< ?v_77 15) (>= ?v_77 2) (<= ?v_78 4) (>= ?v_78 0) (>= (- t_MAKE_STRUCTURE_p11_p12_4 t_TREAT_CERAMIC3_p12_3) 1) ?v_82 ?v_83 ?v_84 ?v_85 ?v_86 ?v_87 ?v_88 ?v_89 ?v_90 (<= ?v_79 3) (< ?v_79 3) (>= ?v_79 1) (>= (- t_MAKE_STRUCTURE_p11_p12_4 t_BAKE_CERAMIC3_p12_k1_3) 5) ?v_3 ?v_4 ?v_5 ?v_6 ?v_7 ?v_8 ?v_9 ?v_10 ?v_11 (< ?v_80 15) (>= ?v_80 2) (<= ?v_81 4) (>= ?v_81 0) (>= (- t_MAKE_STRUCTURE_p11_p12_4 t_TREAT_CERAMIC3_p11_3) 1) ?v_82 ?v_83 ?v_84 ?v_85 ?v_86 ?v_87 ?v_88 ?v_89 ?v_90 (< ?v_91 3) (>= ?v_91 1) (>= (- t_MAKE_STRUCTURE_p11_p12_4 t_BAKE_CERAMIC3_p11_k1_3) 5) (>= (- t_BAKE_STRUCTURE_p11_p12_k1_5 t_MAKE_STRUCTURE_p11_p12_4) 1) ?v_42 ?v_43 ?v_44 ?v_45 ?v_46 (< ?v_92 5) (>= ?v_92 1) (>= ?v_93 4) ?v_3 ?v_4 ?v_5 ?v_6 ?v_7 ?v_8 ?v_9 ?v_10 (< ?v_94 15) (>= ?v_94 2) (<= ?v_95 4) (>= ?v_95 0) (>= (- t_MAKE_STRUCTURE_p13_p14_4 t_TREAT_CERAMIC3_p14_3) 1) ?v_82 ?v_83 ?v_84 ?v_85 ?v_86 ?v_87 ?v_88 ?v_89 (< ?v_96 3) (>= ?v_96 1) (>= (- t_MAKE_STRUCTURE_p13_p14_4 t_BAKE_CERAMIC3_p14_k1_3) 5) ?v_3 ?v_4 ?v_5 ?v_6 ?v_7 ?v_8 ?v_9 (< ?v_97 15) (>= ?v_97 2) (<= ?v_98 4) (>= ?v_98 0) (>= (- t_MAKE_STRUCTURE_p13_p14_4 t_TREAT_CERAMIC3_p13_3) 1) ?v_82 ?v_83 ?v_84 ?v_85 ?v_86 ?v_87 ?v_88 (< ?v_99 3) (>= ?v_99 1) (>= (- t_MAKE_STRUCTURE_p13_p14_4 t_BAKE_CERAMIC3_p13_k1_3) 5) (>= (- t_BAKE_STRUCTURE_p13_p14_k1_5 t_MAKE_STRUCTURE_p13_p14_4) 1) ?v_42 ?v_43 ?v_44 ?v_45 (< ?v_100 5) (>= ?v_100 1) (>= ?v_101 4) ?v_3 ?v_4 ?v_5 ?v_6 ?v_7 ?v_8 (< ?v_102 15) (>= ?v_102 2) (<= ?v_103 4) (>= ?v_103 0) (>= (- t_MAKE_STRUCTURE_p15_p16_4 t_TREAT_CERAMIC3_p16_3) 1) ?v_82 ?v_83 ?v_84 ?v_85 ?v_86 ?v_87 (< ?v_104 3) (>= ?v_104 1) (>= (- t_MAKE_STRUCTURE_p15_p16_4 t_BAKE_CERAMIC3_p16_k1_3) 5) ?v_3 ?v_4 ?v_5 ?v_6 ?v_7 (< ?v_105 15) (>= ?v_105 2) (<= ?v_106 4) (>= ?v_106 0) (>= (- t_MAKE_STRUCTURE_p15_p16_4 t_TREAT_CERAMIC3_p15_3) 1) ?v_82 ?v_83 ?v_84 ?v_85 ?v_86 (< ?v_107 3) (>= ?v_107 1) (>= (- t_MAKE_STRUCTURE_p15_p16_4 t_BAKE_CERAMIC3_p15_k1_3) 5) (>= (- t_BAKE_STRUCTURE_p15_p16_k1_5 t_MAKE_STRUCTURE_p15_p16_4) 1) ?v_42 ?v_43 ?v_44 (< ?v_108 5) (>= ?v_108 1) (>= ?v_109 4) ?v_3 ?v_4 ?v_5 ?v_6 (< ?v_110 15) (>= ?v_110 2) (<= ?v_111 4) (>= ?v_111 0) (>= (- t_MAKE_STRUCTURE_p17_p18_4 t_TREAT_CERAMIC3_p18_3) 1) ?v_82 ?v_83 ?v_84 ?v_85 (< ?v_112 3) (>= ?v_112 1) (>= (- t_MAKE_STRUCTURE_p17_p18_4 t_BAKE_CERAMIC3_p18_k1_3) 5) ?v_3 ?v_4 ?v_5 (< ?v_113 15) (>= ?v_113 2) (<= ?v_114 4) (>= ?v_114 0) (>= (- t_MAKE_STRUCTURE_p17_p18_4 t_TREAT_CERAMIC3_p17_3) 1) ?v_82 ?v_83 ?v_84 (< ?v_115 3) (>= ?v_115 1) (>= (- t_MAKE_STRUCTURE_p17_p18_4 t_BAKE_CERAMIC3_p17_k1_3) 5) (>= (- t_BAKE_STRUCTURE_p17_p18_k1_5 t_MAKE_STRUCTURE_p17_p18_4) 1) ?v_42 ?v_43 (< ?v_116 5) (>= ?v_116 1) (>= ?v_117 4) ?v_3 ?v_4 (< ?v_118 15) (>= ?v_118 2) (<= ?v_119 4) (>= ?v_119 0) (>= (- t_MAKE_STRUCTURE_p19_p20_4 t_TREAT_CERAMIC3_p20_3) 1) ?v_82 ?v_83 (< ?v_120 3) (>= ?v_120 1) (>= (- t_MAKE_STRUCTURE_p19_p20_4 t_BAKE_CERAMIC3_p20_k1_3) 5) ?v_3 (>= ?v_121 2) (<= ?v_122 4) (>= ?v_122 0) (>= (- t_MAKE_STRUCTURE_p19_p20_4 t_TREAT_CERAMIC3_p19_3) 1) ?v_82 (>= ?v_123 1) (>= (- t_MAKE_STRUCTURE_p19_p20_4 t_BAKE_CERAMIC3_p19_k1_3) 5) (>= (- t_BAKE_STRUCTURE_p19_p20_k1_5 t_MAKE_STRUCTURE_p19_p20_4) 1) ?v_42 (>= ?v_124 1) (>= ?v_125 4) ?v_131 ?v_132 ?v_133 (or (<= ?v_130 5) ?v_126) (or ?v_129 (< (- t_BAKE_CERAMIC1_p2_k2_2 t_FIRE_KILN2_k2_2) 5)) (or (>= (- t_BAKE_CERAMIC1_p2_k2_2 t_MAKE_STRUCTURE_p1_p2_4) 1) (< ?v_128 10)) (or (<= ?v_127 0) (> ?v_127 15)) (or (>= ?v_128 5) (> ?v_127 10)) (or (> ?v_128 15) (< (- t_TREAT_CERAMIC1_p2_3 t_BAKE_CERAMIC1_p2_k2_3) 12)) ?v_137 ?v_138 ?v_139 ?v_140 ?v_141 ?v_142 ?v_143 ?v_144 ?v_145 ?v_146 ?v_147 ?v_148 ?v_149 ?v_150 ?v_151 ?v_152 ?v_153 ?v_154 ?v_155 ?v_156 ?v_157 ?v_158 ?v_159 ?v_160 (or (<= ?v_134 5) ?v_129) (or ?v_126 (< ?v_130 5)) ?v_131 ?v_132 ?v_133 (or ?v_129 (< ?v_134 5)) (or (>= (- t_BAKE_CERAMIC1_p1_k2_2 t_MAKE_STRUCTURE_p1_p2_4) 1) (< ?v_136 10)) (or (<= ?v_135 0) (> ?v_135 15)) (or (>= ?v_136 5) (> ?v_135 10)) (or (> ?v_136 15) (< (- t_TREAT_CERAMIC1_p1_3 t_BAKE_CERAMIC1_p1_k2_3) 12)) ?v_137 ?v_138 ?v_139 ?v_140 ?v_141 ?v_142 ?v_143 ?v_144 ?v_145 ?v_146 ?v_147 ?v_148 ?v_149 ?v_150 ?v_151 ?v_152 ?v_153 ?v_154 ?v_155 ?v_156 ?v_157 ?v_158 ?v_159 ?v_160 (or ?v_126 (< ?v_161 5)) ?v_171 ?v_172 ?v_173 ?v_174 ?v_175 ?v_176 ?v_177 ?v_178 ?v_179 ?v_180 (or ?v_181 (< (- t_BAKE_STRUCTURE_p1_p2_k1_5 t_FIRE_KILN1_k1_2) 5)) ?v_131 ?v_132 (or ?v_129 (< ?v_163 5)) (or (>= (- t_BAKE_CERAMIC1_p4_k2_2 t_MAKE_STRUCTURE_p3_p4_4) 1) (< ?v_165 10)) (or (<= ?v_164 0) (> ?v_164 15)) (or (>= ?v_165 5) (> ?v_164 10)) (or (> ?v_165 15) (< (- t_TREAT_CERAMIC1_p4_3 t_BAKE_CERAMIC1_p4_k2_3) 12)) ?v_137 ?v_138 ?v_139 ?v_140 ?v_141 ?v_142 ?v_143 ?v_144 ?v_145 ?v_146 ?v_147 ?v_148 ?v_149 ?v_150 ?v_151 ?v_152 ?v_153 ?v_154 ?v_155 ?v_156 ?v_157 ?v_158 ?v_159 (or ?v_126 (< ?v_166 5)) ?v_131 (or ?v_129 (< ?v_167 5)) (or (>= (- t_BAKE_CERAMIC1_p3_k2_2 t_MAKE_STRUCTURE_p3_p4_4) 1) (< ?v_169 10)) (or (<= ?v_168 0) (> ?v_168 15)) (or (>= ?v_169 5) (> ?v_168 10)) (or (> ?v_169 15) (< (- t_TREAT_CERAMIC1_p3_3 t_BAKE_CERAMIC1_p3_k2_3) 12)) ?v_137 ?v_138 ?v_139 ?v_140 ?v_141 ?v_142 ?v_143 ?v_144 ?v_145 ?v_146 ?v_147 ?v_148 ?v_149 ?v_150 ?v_151 ?v_152 ?v_153 ?v_154 ?v_155 ?v_156 ?v_157 ?v_158 (or ?v_126 (< ?v_170 5)) ?v_171 ?v_172 ?v_173 ?v_174 ?v_175 ?v_176 ?v_177 ?v_178 ?v_179 ?v_180 (or ?v_181 (< (- t_BAKE_STRUCTURE_p3_p4_k1_5 t_FIRE_KILN1_k1_2) 5)) (or (>= (- t_BAKE_CERAMIC2_p6_k2_2 t_MAKE_STRUCTURE_p5_p6_4) 1) (< ?v_183 7)) (or (<= ?v_182 0) (> ?v_182 10)) (or (>= ?v_183 3) (> ?v_182 7)) (or (> ?v_183 10) (< (- t_TREAT_CERAMIC2_p6_3 t_BAKE_CERAMIC2_p6_k2_3) 8)) (or (>= (- t_BAKE_CERAMIC2_p5_k2_2 t_MAKE_STRUCTURE_p5_p6_4) 1) (< ?v_185 7)) (or (<= ?v_184 0) (> ?v_184 10)) (or (>= ?v_185 3) (> ?v_184 7)) (or (> ?v_185 10) (< (- t_TREAT_CERAMIC2_p5_3 t_BAKE_CERAMIC2_p5_k2_3) 8)) ?v_171 ?v_172 ?v_173 ?v_174 ?v_175 ?v_176 ?v_177 ?v_178 ?v_179 ?v_180 (or ?v_181 (< (- t_BAKE_STRUCTURE_p5_p6_k1_5 t_FIRE_KILN1_k1_2) 5)) (or (>= (- t_BAKE_CERAMIC2_p8_k2_2 t_MAKE_STRUCTURE_p7_p8_4) 1) (< ?v_187 7)) (or (<= ?v_186 0) (> ?v_186 10)) (or (>= ?v_187 3) (> ?v_186 7)) (or (> ?v_187 10) (< (- t_TREAT_CERAMIC2_p8_3 t_BAKE_CERAMIC2_p8_k2_3) 8)) (or (>= (- t_BAKE_CERAMIC2_p7_k2_2 t_MAKE_STRUCTURE_p7_p8_4) 1) (< ?v_189 7)) (or (<= ?v_188 0) (> ?v_188 10)) (or (>= ?v_189 3) (> ?v_188 7)) (or (> ?v_189 10) (< (- t_TREAT_CERAMIC2_p7_3 t_BAKE_CERAMIC2_p7_k2_3) 8)) ?v_171 ?v_172 ?v_173 ?v_174 ?v_175 ?v_176 ?v_177 ?v_178 ?v_179 ?v_180 (or ?v_181 (< (- t_BAKE_STRUCTURE_p7_p8_k1_5 t_FIRE_KILN1_k1_2) 5)) (or (>= (- t_BAKE_CERAMIC2_p10_k2_2 t_MAKE_STRUCTURE_p9_p10_4) 1) (< ?v_191 7)) (or (<= ?v_190 0) (> ?v_190 10)) (or (>= ?v_191 3) (> ?v_190 7)) (or (> ?v_191 10) (< (- t_TREAT_CERAMIC2_p10_3 t_BAKE_CERAMIC2_p10_k2_3) 8)) (or (>= (- t_BAKE_CERAMIC2_p9_k2_2 t_MAKE_STRUCTURE_p9_p10_4) 1) (< ?v_193 7)) (or (<= ?v_192 0) (> ?v_192 10)) (or (>= ?v_193 3) (> ?v_192 7)) (or (> ?v_193 10) (< (- t_TREAT_CERAMIC2_p9_3 t_BAKE_CERAMIC2_p9_k2_3) 8)) ?v_171 ?v_172 ?v_173 ?v_174 ?v_175 ?v_176 ?v_177 ?v_178 ?v_179 ?v_180 (or ?v_181 (< (- t_BAKE_STRUCTURE_p9_p10_k1_5 t_FIRE_KILN1_k1_2) 5)) (or (>= (- t_BAKE_CERAMIC3_p12_k2_2 t_MAKE_STRUCTURE_p11_p12_4) 1) (< ?v_195 4)) (or (<= ?v_194 0) (> ?v_194 5)) (or (>= ?v_195 1) (> ?v_194 4)) (or (> ?v_195 5) (< (- t_TREAT_CERAMIC3_p12_3 t_BAKE_CERAMIC3_p12_k1_3) 4)) ?v_199 ?v_200 ?v_201 ?v_202 ?v_203 (or ?v_162 (< ?v_196 3)) (or (>= (- t_BAKE_CERAMIC3_p11_k2_2 t_MAKE_STRUCTURE_p11_p12_4) 1) (< ?v_198 4)) (or (<= ?v_197 0) (> ?v_197 5)) (or (>= ?v_198 1) (> ?v_197 4)) (or (> ?v_198 5) (< (- t_TREAT_CERAMIC3_p11_3 t_BAKE_CERAMIC3_p11_k1_3) 4)) ?v_199 ?v_200 ?v_201 ?v_202 ?v_203 (or ?v_162 (< ?v_204 3)) ?v_171 ?v_172 ?v_173 ?v_174 ?v_175 ?v_176 ?v_177 ?v_178 (or ?v_181 (< ?v_205 5)) (or (>= (- t_BAKE_CERAMIC3_p14_k2_2 t_MAKE_STRUCTURE_p13_p14_4) 1) (< ?v_207 4)) (or (<= ?v_206 0) (> ?v_206 5)) (or (>= ?v_207 1) (> ?v_206 4)) (or (> ?v_207 5) (< (- t_TREAT_CERAMIC3_p14_3 t_BAKE_CERAMIC3_p14_k1_3) 4)) ?v_199 ?v_200 ?v_201 ?v_202 (or ?v_162 (< ?v_208 3)) (or (>= (- t_BAKE_CERAMIC3_p13_k2_2 t_MAKE_STRUCTURE_p13_p14_4) 1) (< ?v_210 4)) (or (<= ?v_209 0) (> ?v_209 5)) (or (>= ?v_210 1) (> ?v_209 4)) (or (> ?v_210 5) (< (- t_TREAT_CERAMIC3_p13_3 t_BAKE_CERAMIC3_p13_k1_3) 4)) ?v_199 ?v_200 ?v_201 ?v_202 (or ?v_162 (< ?v_211 3)) ?v_171 ?v_172 ?v_173 ?v_174 ?v_175 ?v_176 (or ?v_181 (< ?v_212 5)) (or (>= (- t_BAKE_CERAMIC3_p16_k2_2 t_MAKE_STRUCTURE_p15_p16_4) 1) (< ?v_214 4)) (or (<= ?v_213 0) (> ?v_213 5)) (or (>= ?v_214 1) (> ?v_213 4)) (or (> ?v_214 5) (< (- t_TREAT_CERAMIC3_p16_3 t_BAKE_CERAMIC3_p16_k1_3) 4)) ?v_199 ?v_200 ?v_201 (or ?v_162 (< ?v_215 3)) (or (>= (- t_BAKE_CERAMIC3_p15_k2_2 t_MAKE_STRUCTURE_p15_p16_4) 1) (< ?v_217 4)) (or (<= ?v_216 0) (> ?v_216 5)) (or (>= ?v_217 1) (> ?v_216 4)) (or (> ?v_217 5) (< (- t_TREAT_CERAMIC3_p15_3 t_BAKE_CERAMIC3_p15_k1_3) 4)) ?v_199 ?v_200 ?v_201 (or ?v_162 (< ?v_218 3)) ?v_171 ?v_172 ?v_173 ?v_174 (or ?v_181 (< ?v_219 5)) (or (>= (- t_BAKE_CERAMIC3_p18_k2_2 t_MAKE_STRUCTURE_p17_p18_4) 1) (< ?v_221 4)) (or (<= ?v_220 0) (> ?v_220 5)) (or (>= ?v_221 1) (> ?v_220 4)) (or (> ?v_221 5) (< (- t_TREAT_CERAMIC3_p18_3 t_BAKE_CERAMIC3_p18_k1_3) 4)) ?v_199 ?v_200 (or ?v_162 (< ?v_222 3)) (or (>= (- t_BAKE_CERAMIC3_p17_k2_2 t_MAKE_STRUCTURE_p17_p18_4) 1) (< ?v_224 4)) (or (<= ?v_223 0) (> ?v_223 5)) (or (>= ?v_224 1) (> ?v_223 4)) (or (> ?v_224 5) (< (- t_TREAT_CERAMIC3_p17_3 t_BAKE_CERAMIC3_p17_k1_3) 4)) ?v_199 ?v_200 (or ?v_162 (< ?v_225 3)) ?v_171 ?v_172 (or ?v_181 (< ?v_226 5)) (or (>= (- t_BAKE_CERAMIC3_p20_k2_2 t_MAKE_STRUCTURE_p19_p20_4) 1) (< ?v_228 4)) (or (<= ?v_227 0) (> ?v_227 5)) (or (>= ?v_228 1) (> ?v_227 4)) (or (> ?v_228 5) (< (- t_TREAT_CERAMIC3_p20_3 t_BAKE_CERAMIC3_p20_k1_3) 4)) ?v_199 (or ?v_162 (< ?v_229 3)) (or (>= (- t_BAKE_CERAMIC3_p19_k2_2 t_MAKE_STRUCTURE_p19_p20_4) 1) (< ?v_231 4)) (or (<= ?v_230 0) (> ?v_230 5)) (or (>= ?v_231 1) (> ?v_230 4)) (or (> ?v_231 5) (< (- t_TREAT_CERAMIC3_p19_3 t_BAKE_CERAMIC3_p19_k1_3) 4)) ?v_199 (or ?v_162 (< ?v_232 3))))))))))))))))))))))))))))))))))))))))))))))))))))))))))))))))))))))))
(check-sat)
(exit)
